144atoms
1.0
  20.8980405679999990   -0.0036629770000000   -0.0028082400000000
  -0.0003431620000000   20.8980402850000004    0.0028058720000000
   0.0002569600000000   -0.0002581840000000   10.4437893279999994
A M X
32 16 96
direct
   0.3757011224000000    0.1242982779000000    0.2493406066000000 Cs
   0.1242983528000000    0.3757013237000000    0.7506594990000000 Cs
   0.8749166169000000    0.1243968398000000    0.2494497495000000 Cs
   0.6250832012999999    0.3756026669000000    0.7505500711999999 Cs
   0.3756022144000000    0.6250833032999999    0.2494499814000000 Cs
   0.1243965434000000    0.8749164497000000    0.7505505979000000 Cs
   0.8747910063000000    0.6252091546000000    0.2492673448000000 Cs
   0.6252092947000000    0.8747907162000000    0.7507327906000000 Cs
   0.1243636830000000    0.3756359245000000    0.2503384390000000 Cs
   0.3756358179000000    0.1243635820000000    0.7496620503000000 Cs
   0.1239907084000000    0.1236203178000000    0.7514870839000000 Rb
   0.3760084409000000    0.3763791431000000    0.2485129742000000 Rb
   0.3763789736000000    0.3760086217000000    0.7514871056000000 Rb
   0.1236202581000000    0.1239908446000000    0.2485134693000000 Rb
   0.6246138453000000    0.3760873946000000    0.2476659541000000 Rb
   0.8753858046000000    0.1239120691000000    0.7523342359000000 Rb
   0.6245304795000000    0.1239617747000000    0.7517361096000000 Rb
   0.8754699818000000    0.3760380249000000    0.2482629942000000 Rb
   0.8751732555000000    0.3758781276000000    0.7512518598000000 Rb
   0.6248271747000000    0.1241216649000000    0.2487494836000000 Rb
   0.1239119628000000    0.8753856562000000    0.2476661956000000 Rb
   0.3760870352000000    0.6246140647000000    0.7523340232000000 Rb
   0.1241218020000000    0.6248270855000000    0.7512505833000001 Rb
   0.3758777034000000    0.8751730987000000    0.2487483956000000 Rb
   0.3760376739000000    0.8754697487000000    0.7517369969000000 Rb
   0.1239618730000000    0.6245303915000000    0.2482640363000000 Rb
   0.6246312952999999    0.8753686626000000    0.2489298575000000 Rb
   0.8753690489000000    0.6246311266000000    0.7510702389000000 Rb
   0.6242901835000000    0.6241757897000000    0.7513993632000000 Rb
   0.8757098710000000    0.8758240687000000    0.2486008222000000 Rb
   0.8758242672000000    0.8757096778000000    0.7513995440000000 Rb
   0.6241757905999999    0.6242902075000000    0.2486006787000000 Rb
  -0.0001481905000000   -0.0001482118000000    0.0000001965000000 Pd
   0.5011303526999999   -0.0011261498000000    0.0018880190000000 Pd
  -0.0011256935000000    0.5011304492000000   -0.0018880276000000 Pd
   0.5001482321000000    0.5001486226000000    0.0000000574000000 Pd
  -0.0011533296000000    0.2489301531000000    0.5023153962000000 Ti
   0.2489291575000000   -0.0011533312000000    0.4976848889000000 Ti
   0.2499990387000000    0.2499992212000000    0.0000002586000000 Ti
   0.5011524155000000    0.2510692484000000    0.4976846538000000 Ti
   0.7499546153000000   -0.0001642568000000    0.5001707855000000 Ti
   0.7500005336000000    0.2499996611000000    0.0000001355000000 Ti
  -0.0001643882000000    0.7499537639000000    0.4998292786000000 Ti
   0.2510685994000000    0.5011523727000000    0.5023153281000000 Ti
   0.2499989473000000    0.7500001244000000    0.0000002010000000 Ti
   0.5001633019000000    0.7500463056000000    0.5001706195000000 Ti
   0.7500469435000000    0.5001635026000000    0.4998293695000000 Ti
   0.7500006406000000    0.7499999870000000   -0.0000000347000000 Ti
   0.2483775925000000    0.1185496470000000    0.4980955673000000 Br
   0.2516215272000000    0.3814496083000000    0.5019045529000000 Br
   0.2499940171000000    0.2500046996000000    0.2391944185000000 Br
   0.2500047602000000    0.2499941771000000    0.7608058696000000 Br
   0.1185498792000000    0.2483778784000000    0.5019046552000000 Br
   0.3814495807000000    0.2516215456000000    0.4980955727000000 Br
   0.2507020080000000    0.3699929318000000    0.0001377927000000 Br
   0.2492971170000000    0.1300061094000000    0.9998625241000000 Br
   0.2493246922000000   -0.0008399655000000    0.7379372530000000 Br
   0.2506746193000000    0.5008392209000000    0.2620629257000000 Br
   0.1181801917000000    0.0005867066000000    0.0014784952000000 Br
   0.3818197130000000    0.4994133975000000    0.9985217451000000 Br
   0.0005868603000000    0.1181801973000000    0.9985220623000000 Br
   0.4994127925000000    0.3818199412000000    0.0014782571000000 Br
   0.5008390718000000    0.2506747231000000    0.7379371840000000 Br
  -0.0008398726000000    0.2493250321000000    0.2620628291000000 Br
   0.3699930680000000    0.2507019610000000    0.9998626117000000 Br
   0.1300060734000000    0.2492972874000000    0.0001377716000000 Br
   0.5005969736000000    0.3709388360000000    0.4975489074000000 Br
  -0.0005976728000000    0.1290604467000000    0.5024511936000000 Br
  -0.0008998436000000    0.5009035833000000    0.2350285915000000 Br
   0.5009035365000000   -0.0009003426000000    0.7649710819000000 Br
   0.3709391683000000    0.5005970851000000    0.5024509488000000 Br
   0.1290602435000000   -0.0005976276000000    0.4975491715000000 Br
   0.7493935224000000    0.1194165164000000    0.5009305576999999 Br
   0.7506066421000001    0.3805828513000000    0.4990696456000000 Br
   0.7496825416000000    0.2504085623000000    0.2392161134000000 Br
   0.7503174429000000    0.2495910703000000    0.7607840530000000 Br
   0.6205688903000000    0.2506175373000000    0.4972421001000000 Br
   0.8794299523000000    0.2493817978000000    0.5027580551000000 Br
   0.7504557893000000    0.3700284560000000    0.0007467045000000 Br
   0.7495448022000000    0.1299714020000000    0.9992532688000000 Br
   0.7504333667999999    0.0002172757000000    0.7402717229000000 Br
   0.7495671511999999    0.4997819917000000    0.2597286435000000 Br
   0.6194077259000000   -0.0002699958000000    0.0030260072000000 Br
   0.8805958625000000    0.5002731879000000    0.9969738699000000 Br
   0.5024553828000000    0.1172938247000000    1.0014564727999999 Br
   0.9975477524000000    0.3827095482000000   -0.0014558829000000 Br
   0.9988198374000000    0.2489414819000000    0.7420635059000000 Br
   0.5011794101000000    0.2510581783000000    0.2579366314000000 Br
   0.8699185760000000    0.2503027277000000    0.9993482326000001 Br
   0.6300812156000000    0.2496974377000000    0.0006518823000000 Br
   0.9982663689000000    0.3690767316000000    0.5015963331000000 Br
   0.5017328481000000    0.1309224826000000    0.4984038041000000 Br
   0.5008146489000000    0.4994688212000000    0.2367732757000000 Br
   0.9991851396000000    0.0005314776000000    0.7632279312000000 Br
   0.8699546921000000    0.4999222947000000    0.5003168494000000 Br
   0.6300453709000000    0.0000769659000000    0.4996833515000000 Br
   0.2506173492000000    0.6205691976000000    0.5027579577000000 Br
   0.2493812756000000    0.8794300834000000    0.4972420406000000 Br
   0.2495906100000000    0.7503172149000000    0.2392158477000000 Br
   0.2504081900000000    0.7496823480000000    0.7607843179000000 Br
   0.1194167880000000    0.7493931998000000    0.4990698351000000 Br
   0.3805828448000000    0.7506065964000000    0.5009306009000000 Br
   0.2503023751000000    0.8699184416000000    0.0006519868000000 Br
   0.2496970488000000    0.6300813092000001    0.9993483918000000 Br
   0.2510580798000000    0.5011794322999999    0.7420632622000000 Br
   0.2489411466000000    0.9988199397999999    0.2579371992000000 Br
   0.1172946191000000    0.5024554073000000   -0.0014559774000000 Br
   0.3827097801000000    0.9975472723000000    1.0014562451000000 Br
  -0.0002693044000000    0.6194081683000000    0.9969741702000000 Br
   0.5002730290000000    0.8805958940000000    0.0030262664000000 Br
   0.4997819003000000    0.7495670151000000    0.7402717225000000 Br
   0.0002175009000000    0.7504331288000000    0.2597286125000000 Br
   0.3700282999000000    0.7504556460000000    0.9992533187000000 Br
   0.1299711136000000    0.7495446507000000    0.0007469573000000 Br
   0.4999223223000000    0.8699548775000000    0.4996833329000000 Br
   0.0000770739000000    0.6300451744000000    0.5003168815000000 Br
   0.0005315239000000    0.9991851631999999    0.2367723604000000 Br
   0.4994684060000000    0.5008151007000000    0.7632268689000000 Br
   0.3690768926000000    0.9982662431000000    0.4984043049000000 Br
   0.1309226792000000    0.5017328076999999    0.5015963081000000 Br
   0.7495791605000000    0.6197297107000000    0.5008015136000000 Br
   0.7504208879000001    0.8802696915000000    0.4991987656000000 Br
   0.7495122874000000    0.7504873397000000    0.2392710444000000 Br
   0.7504876563000000    0.7495120414999999    0.7607288628000000 Br
   0.6197294427000000    0.7495789455000000    0.4991984452000000 Br
   0.8802698889000000    0.7504206132000000    0.5008013566000000 Br
   0.7504443268000000    0.8699549029000000    0.0006254926000000 Br
   0.7495557844000000    0.6300445036000000    0.9993744604000000 Br
   0.7503214025000000    0.5004873889000000    0.7399135926000000 Br
   0.7496790934000001    0.9995119190000000    0.2600861723000000 Br
   0.6184843509000000    0.5009042478000000    0.0015221049000000 Br
   0.8815156212000000    0.9990960564000000    0.9984783921000000 Br
   0.5009038011000000    0.6184847853000000    0.9984778891000000 Br
   0.9990961435000000    0.8815155622000000    0.0015223676000000 Br
   0.9995119124000000    0.7496787474000000    0.7399136607000000 Br
   0.5004872114000000    0.7503212752000000    0.2600861460000000 Br
   0.8699550496000000    0.7504440487000000    0.9993745001000000 Br
   0.6300446188000000    0.7495554770000000    0.0006255250000000 Br
   0.9995146175000000    0.8699074194999999    0.4990591612000000 Br
   0.5004845833000000    0.6300922333000000    0.5009410908000000 Br
   0.5016524378000000    0.9983505378999999    0.2385364134000000 Br
   0.9983512094000000    0.5016525040000001    0.7614637209000000 Br
   0.8699071677000000    0.9995145556000000    0.5009410833000000 Br
   0.6300920051000000    0.5004849104000000    0.4990589718000000 Br
